
Gurobi 9.1.2 (win64, gurobi_cl) logging started Tue Jan 17 14:03:22 2023


Gurobi 9.1.2 (win64, gurobi_cl) logging started Tue Jan 17 14:04:31 2023


Gurobi 9.1.2 (win64, gurobi_cl) logging started Thu Jan 19 09:49:43 2023


Gurobi 9.1.2 (win64, gurobi_cl) logging started Thu Jan 19 10:13:31 2023


Gurobi 9.1.2 (win64, gurobi_cl) logging started Thu Feb  2 10:16:44 2023


Gurobi 9.1.2 (win64, gurobi_cl) logging started Thu Feb  9 10:34:29 2023


Gurobi 9.1.2 (win64, gurobi_cl) logging started Thu Feb  9 15:21:58 2023


Gurobi 9.1.2 (win64, gurobi_cl) logging started Mon Feb 20 09:15:27 2023

